certificates/rado_a7_c264_N38.cnf
c Rad2 upper bound instance: x1 + 7*x2 - x3 = 264, interval [1,38]
p cnf 38 262
1 3 38 0
-1 -3 -38 0
2 4 38 0
-2 -4 -38 0
3 5 38 0
-3 -5 -38 0
4 6 38 0
-4 -6 -38 0
5 7 38 0
-5 -7 -38 0
1 6 37 0
-1 -6 -37 0
6 8 38 0
-6 -8 -38 0
2 7 37 0
-2 -7 -37 0
7 9 38 0
-7 -9 -38 0
3 8 37 0
-3 -8 -37 0
8 10 38 0
-8 -10 -38 0
4 9 37 0
-4 -9 -37 0
9 11 38 0
-9 -11 -38 0
5 10 37 0
-5 -10 -37 0
10 12 38 0
-10 -12 -38 0
6 11 37 0
-6 -11 -37 0
11 13 38 0
-11 -13 -38 0
7 12 37 0
-7 -12 -37 0
12 14 38 0
-12 -14 -38 0
1 13 36 0
-1 -13 -36 0
8 13 37 0
-8 -13 -37 0
13 15 38 0
-13 -15 -38 0
2 14 36 0
-2 -14 -36 0
9 14 37 0
-9 -14 -37 0
14 16 38 0
-14 -16 -38 0
3 15 36 0
-3 -15 -36 0
10 15 37 0
-10 -15 -37 0
15 17 38 0
-15 -17 -38 0
4 16 36 0
-4 -16 -36 0
11 16 37 0
-11 -16 -37 0
16 18 38 0
-16 -18 -38 0
5 17 36 0
-5 -17 -36 0
12 17 37 0
-12 -17 -37 0
17 19 38 0
-17 -19 -38 0
6 18 36 0
-6 -18 -36 0
13 18 37 0
-13 -18 -37 0
18 20 38 0
-18 -20 -38 0
7 19 36 0
-7 -19 -36 0
14 19 37 0
-14 -19 -37 0
19 21 38 0
-19 -21 -38 0
1 20 35 0
-1 -20 -35 0
8 20 36 0
-8 -20 -36 0
15 20 37 0
-15 -20 -37 0
20 22 38 0
-20 -22 -38 0
2 21 35 0
-2 -21 -35 0
9 21 36 0
-9 -21 -36 0
16 21 37 0
-16 -21 -37 0
21 23 38 0
-21 -23 -38 0
3 22 35 0
-3 -22 -35 0
10 22 36 0
-10 -22 -36 0
17 22 37 0
-17 -22 -37 0
22 24 38 0
-22 -24 -38 0
4 23 35 0
-4 -23 -35 0
11 23 36 0
-11 -23 -36 0
18 23 37 0
-18 -23 -37 0
23 25 38 0
-23 -25 -38 0
5 24 35 0
-5 -24 -35 0
12 24 36 0
-12 -24 -36 0
19 24 37 0
-19 -24 -37 0
24 26 38 0
-24 -26 -38 0
6 25 35 0
-6 -25 -35 0
13 25 36 0
-13 -25 -36 0
20 25 37 0
-20 -25 -37 0
25 27 38 0
-25 -27 -38 0
7 26 35 0
-7 -26 -35 0
14 26 36 0
-14 -26 -36 0
21 26 37 0
-21 -26 -37 0
26 28 38 0
-26 -28 -38 0
1 27 34 0
-1 -27 -34 0
8 27 35 0
-8 -27 -35 0
15 27 36 0
-15 -27 -36 0
22 27 37 0
-22 -27 -37 0
27 29 38 0
-27 -29 -38 0
2 28 34 0
-2 -28 -34 0
9 28 35 0
-9 -28 -35 0
16 28 36 0
-16 -28 -36 0
23 28 37 0
-23 -28 -37 0
28 30 38 0
-28 -30 -38 0
3 29 34 0
-3 -29 -34 0
10 29 35 0
-10 -29 -35 0
17 29 36 0
-17 -29 -36 0
24 29 37 0
-24 -29 -37 0
29 31 38 0
-29 -31 -38 0
4 30 34 0
-4 -30 -34 0
11 30 35 0
-11 -30 -35 0
18 30 36 0
-18 -30 -36 0
25 30 37 0
-25 -30 -37 0
30 32 38 0
-30 -32 -38 0
5 31 34 0
-5 -31 -34 0
12 31 35 0
-12 -31 -35 0
19 31 36 0
-19 -31 -36 0
26 31 37 0
-26 -31 -37 0
31 33 38 0
-31 -33 -38 0
6 32 34 0
-6 -32 -34 0
13 32 35 0
-13 -32 -35 0
20 32 36 0
-20 -32 -36 0
27 32 37 0
-27 -32 -37 0
32 34 38 0
-32 -34 -38 0
7 33 34 0
-7 -33 -34 0
14 33 35 0
-14 -33 -35 0
21 33 36 0
-21 -33 -36 0
28 33 37 0
-28 -33 -37 0
33 35 38 0
-33 -35 -38 0
1 33 34 0
-1 -33 -34 0
8 34 0
-8 -34 0
15 34 35 0
-15 -34 -35 0
22 34 36 0
-22 -34 -36 0
29 34 37 0
-29 -34 -37 0
34 36 38 0
-34 -36 -38 0
2 33 35 0
-2 -33 -35 0
9 34 35 0
-9 -34 -35 0
16 35 0
-16 -35 0
23 35 36 0
-23 -35 -36 0
30 35 37 0
-30 -35 -37 0
35 37 38 0
-35 -37 -38 0
3 33 36 0
-3 -33 -36 0
10 34 36 0
-10 -34 -36 0
17 35 36 0
-17 -35 -36 0
24 36 0
-24 -36 0
31 36 37 0
-31 -36 -37 0
36 38 0
-36 -38 0
4 33 37 0
-4 -33 -37 0
11 34 37 0
-11 -34 -37 0
18 35 37 0
-18 -35 -37 0
25 36 37 0
-25 -36 -37 0
32 37 0
-32 -37 0
5 33 38 0
-5 -33 -38 0
12 34 38 0
-12 -34 -38 0
19 35 38 0
-19 -35 -38 0
26 36 38 0
-26 -36 -38 0
33 37 38 0
-33 -37 -38 0
