certificates/rado_a7_c264_N38.drat
-38 0
36 0
-24 0
22 0
26 0
-10 0
-34 0
-14 0
8 0
12 0
32 0
16 0
-20 0
-37 0
-4 0
-28 0
-35 0
18 0
15 0
25 0
0
